c numero: 79
c nombre: n-60-d-0.3
c densidad: 0.3
p edges 60 530
e 1 4
e 1 8
e 1 12
e 1 14
e 1 26
e 1 28
e 1 33
e 1 34
e 1 42
e 1 48
e 1 53
e 1 58
e 1 60
e 2 4
e 2 17
e 2 18
e 2 22
e 2 24
e 2 29
e 2 30
e 2 33
e 2 37
e 2 38
e 2 40
e 2 41
e 2 42
e 2 46
e 2 49
e 2 50
e 2 53
e 2 54
e 2 60
e 3 5
e 3 10
e 3 15
e 3 20
e 3 21
e 3 24
e 3 25
e 3 30
e 3 32
e 3 37
e 3 38
e 3 44
e 3 47
e 3 56
e 3 58
e 4 10
e 4 11
e 4 15
e 4 16
e 4 24
e 4 35
e 4 37
e 4 41
e 4 42
e 4 43
e 4 48
e 4 49
e 4 50
e 4 51
e 4 59
e 4 60
e 5 6
e 5 9
e 5 11
e 5 14
e 5 16
e 5 17
e 5 21
e 5 24
e 5 27
e 5 31
e 5 32
e 5 33
e 5 35
e 5 38
e 5 39
e 5 43
e 5 44
e 5 49
e 5 52
e 5 54
e 5 55
e 5 56
e 5 57
e 6 7
e 6 10
e 6 12
e 6 14
e 6 18
e 6 19
e 6 20
e 6 21
e 6 25
e 6 26
e 6 29
e 6 31
e 6 34
e 6 37
e 6 40
e 6 42
e 6 43
e 6 47
e 6 52
e 6 56
e 6 58
e 7 10
e 7 12
e 7 17
e 7 22
e 7 25
e 7 27
e 7 30
e 7 35
e 7 36
e 7 46
e 7 47
e 7 51
e 7 52
e 7 54
e 7 56
e 8 9
e 8 13
e 8 14
e 8 16
e 8 32
e 8 36
e 8 37
e 8 38
e 8 40
e 8 43
e 8 46
e 8 49
e 8 52
e 8 53
e 8 54
e 8 56
e 8 60
e 9 13
e 9 17
e 9 19
e 9 20
e 9 21
e 9 31
e 9 34
e 9 35
e 9 42
e 9 46
e 9 47
e 9 50
e 9 51
e 9 52
e 9 53
e 9 55
e 9 56
e 9 57
e 10 14
e 10 15
e 10 17
e 10 24
e 10 25
e 10 28
e 10 30
e 10 33
e 10 35
e 10 36
e 10 38
e 10 39
e 10 43
e 10 44
e 10 49
e 10 51
e 10 52
e 11 13
e 11 18
e 11 21
e 11 22
e 11 26
e 11 27
e 11 34
e 11 38
e 11 39
e 11 40
e 11 44
e 11 47
e 11 48
e 11 52
e 11 56
e 12 19
e 12 20
e 12 22
e 12 23
e 12 25
e 12 26
e 12 30
e 12 37
e 12 39
e 12 42
e 12 51
e 12 52
e 12 59
e 13 16
e 13 27
e 13 30
e 13 40
e 13 43
e 13 48
e 13 49
e 13 52
e 13 56
e 13 58
e 13 59
e 14 23
e 14 32
e 14 33
e 14 38
e 14 39
e 14 42
e 14 51
e 14 57
e 14 59
e 15 20
e 15 26
e 15 28
e 15 39
e 15 40
e 15 41
e 15 43
e 15 44
e 15 48
e 15 49
e 15 54
e 15 58
e 15 60
e 16 19
e 16 20
e 16 29
e 16 31
e 16 33
e 16 34
e 16 35
e 16 39
e 16 47
e 16 49
e 16 53
e 16 57
e 16 58
e 17 24
e 17 27
e 17 28
e 17 31
e 17 39
e 17 41
e 17 43
e 17 44
e 17 46
e 17 51
e 17 58
e 17 60
e 18 19
e 18 22
e 18 24
e 18 26
e 18 27
e 18 32
e 18 37
e 18 41
e 18 43
e 18 44
e 18 45
e 18 47
e 18 50
e 18 53
e 18 59
e 19 22
e 19 23
e 19 28
e 19 29
e 19 32
e 19 35
e 19 38
e 19 39
e 19 43
e 19 44
e 19 47
e 19 49
e 19 50
e 19 53
e 19 55
e 19 59
e 20 27
e 20 28
e 20 30
e 20 31
e 20 34
e 20 37
e 20 40
e 20 43
e 20 49
e 20 53
e 20 54
e 20 55
e 20 57
e 20 59
e 21 23
e 21 33
e 21 34
e 21 36
e 21 39
e 21 43
e 21 45
e 21 46
e 21 48
e 21 50
e 21 51
e 21 52
e 21 60
e 22 24
e 22 26
e 22 27
e 22 28
e 22 31
e 22 42
e 22 48
e 22 49
e 22 50
e 22 56
e 23 26
e 23 31
e 23 35
e 23 36
e 23 38
e 23 47
e 23 54
e 23 55
e 23 59
e 23 60
e 24 26
e 24 36
e 24 37
e 24 38
e 24 41
e 24 47
e 24 57
e 24 58
e 25 29
e 25 31
e 25 32
e 25 33
e 25 39
e 25 41
e 25 42
e 25 46
e 25 50
e 25 55
e 26 28
e 26 45
e 26 49
e 26 52
e 26 54
e 26 56
e 27 28
e 27 30
e 27 35
e 27 36
e 27 37
e 27 39
e 27 44
e 27 47
e 27 51
e 27 59
e 28 29
e 28 31
e 28 33
e 28 37
e 28 39
e 28 41
e 28 42
e 28 45
e 28 46
e 28 50
e 29 33
e 29 35
e 29 37
e 29 45
e 29 49
e 29 51
e 29 52
e 29 59
e 30 33
e 30 37
e 30 45
e 30 47
e 30 54
e 30 57
e 30 58
e 30 60
e 31 33
e 31 35
e 31 41
e 31 45
e 31 46
e 31 48
e 32 33
e 32 34
e 32 36
e 32 37
e 32 44
e 32 52
e 32 54
e 32 55
e 32 59
e 33 34
e 33 35
e 33 36
e 33 37
e 33 38
e 33 41
e 33 43
e 33 44
e 33 49
e 33 54
e 34 36
e 34 39
e 34 41
e 34 46
e 34 49
e 34 50
e 34 54
e 34 57
e 35 38
e 35 48
e 35 53
e 35 58
e 36 37
e 36 41
e 36 46
e 36 48
e 36 57
e 36 60
e 37 38
e 37 43
e 37 45
e 37 49
e 37 50
e 37 51
e 37 54
e 37 58
e 37 60
e 38 39
e 38 44
e 38 50
e 38 55
e 38 57
e 38 58
e 38 60
e 39 40
e 39 45
e 39 46
e 39 47
e 39 51
e 39 53
e 39 54
e 39 58
e 40 45
e 40 49
e 40 50
e 40 60
e 41 44
e 41 46
e 41 51
e 41 54
e 42 48
e 42 49
e 42 51
e 42 52
e 42 53
e 42 54
e 42 56
e 42 60
e 43 44
e 43 45
e 43 46
e 43 53
e 43 54
e 43 57
e 43 58
e 44 50
e 44 52
e 44 57
e 45 46
e 45 47
e 45 48
e 45 55
e 45 58
e 46 47
e 46 48
e 46 51
e 46 53
e 46 56
e 46 57
e 46 59
e 46 60
e 47 50
e 47 53
e 47 55
e 47 57
e 48 50
e 48 51
e 48 52
e 48 59
e 48 60
e 49 51
e 49 53
e 49 59
e 50 51
e 50 56
e 51 55
e 51 59
e 52 55
e 53 59
e 54 56
e 54 60
e 55 58
e 55 59
e 56 58
e 57 58
e 58 59
e 59 60
